NAME          
ROWS
 N  OBJ
 L  c1
 L  c2
 L  c3
 L  c4
 L  c5
COLUMNS
    MARKER    'MARKER'                 'INTORG'
    x[1]      c1        697
    x[1]      c2        681
    x[1]      c3        511
    x[1]      c4        208
    x[1]      c5        337
    x[1]      OBJ       -654
    x[2]      c1        787
    x[2]      c2        516
    x[2]      c3        596
    x[2]      c4        331
    x[2]      c5        669
    x[2]      OBJ       -544
    x[3]      c1        615
    x[3]      c2        641
    x[3]      c3        197
    x[3]      c4        527
    x[3]      c5        746
    x[3]      OBJ       -248
    x[4]      c1        522
    x[4]      c2        533
    x[4]      c3        133
    x[4]      c4        920
    x[4]      c5        259
    x[4]      OBJ       -51
    x[5]      c1        469
    x[5]      c2        330
    x[5]      c3        377
    x[5]      c4        610
    x[5]      c5        101
    x[5]      OBJ       -262
    x[6]      c1        348
    x[6]      c2        163
    x[6]      c3        416
    x[6]      c4        335
    x[6]      c5        525
    x[6]      OBJ       -494
    x[7]      c1        1
    x[7]      c2        552
    x[7]      c3        366
    x[7]      c4        599
    x[7]      c5        681
    x[7]      OBJ       -660
    x[8]      c1        906
    x[8]      c2        567
    x[8]      c3        7
    x[8]      c4        130
    x[8]      c5        270
    x[8]      OBJ       -253
    x[9]      c1        66
    x[9]      c2        487
    x[9]      c3        866
    x[9]      c4        803
    x[9]      c5        920
    x[9]      OBJ       -320
    x[10]     c1        63
    x[10]     c2        569
    x[10]     c3        906
    x[10]     c4        657
    x[10]     c5        78
    x[10]     OBJ       -185
    x[11]     c1        924
    x[11]     c2        876
    x[11]     c3        892
    x[11]     c4        875
    x[11]     c5        102
    x[11]     OBJ       -630
    x[12]     c1        362
    x[12]     c2        740
    x[12]     c3        652
    x[12]     c4        581
    x[12]     c5        16
    x[12]     OBJ       -667
    x[13]     c1        356
    x[13]     c2        897
    x[13]     c3        689
    x[13]     c4        339
    x[13]     c5        378
    x[13]     OBJ       -640
    x[14]     c1        169
    x[14]     c2        382
    x[14]     c3        255
    x[14]     c4        436
    x[14]     c5        644
    x[14]     OBJ       -368
    x[15]     c1        725
    x[15]     c2        653
    x[15]     c3        415
    x[15]     c4        423
    x[15]     c5        558
    x[15]     OBJ       -57
    x[16]     c1        103
    x[16]     c2        13
    x[16]     c3        419
    x[16]     c4        446
    x[16]     c5        916
    x[16]     OBJ       -84
    x[17]     c1        931
    x[17]     c2        714
    x[17]     c3        78
    x[17]     c4        492
    x[17]     c5        784
    x[17]     OBJ       -906
    x[18]     c1        751
    x[18]     c2        66
    x[18]     c3        538
    x[18]     c4        739
    x[18]     c5        847
    x[18]     OBJ       -624
    x[19]     c1        699
    x[19]     c2        167
    x[19]     c3        619
    x[19]     c4        542
    x[19]     c5        114
    x[19]     OBJ       -377
    x[20]     c1        810
    x[20]     c2        113
    x[20]     c3        670
    x[20]     c4        600
    x[20]     c5        773
    x[20]     OBJ       -498
    x[21]     c1        919
    x[21]     c2        287
    x[21]     c3        735
    x[21]     c4        673
    x[21]     c5        872
    x[21]     OBJ       -477
    x[22]     c1        124
    x[22]     c2        435
    x[22]     c3        356
    x[22]     c4        591
    x[22]     c5        989
    x[22]     OBJ       -437
    x[23]     c1        327
    x[23]     c2        308
    x[23]     c3        964
    x[23]     c4        148
    x[23]     c5        166
    x[23]     OBJ       -340
    x[24]     c1        26
    x[24]     c2        26
    x[24]     c3        45
    x[24]     c4        710
    x[24]     c5        70
    x[24]     OBJ       -139
    x[25]     c1        257
    x[25]     c2        399
    x[25]     c3        37
    x[25]     c4        194
    x[25]     c5        430
    x[25]     OBJ       -568
    x[26]     c1        796
    x[26]     c2        10
    x[26]     c3        854
    x[26]     c4        305
    x[26]     c5        935
    x[26]     OBJ       -210
    x[27]     c1        89
    x[27]     c2        850
    x[27]     c3        519
    x[27]     c4        335
    x[27]     c5        623
    x[27]     OBJ       -845
    x[28]     c1        523
    x[28]     c2        740
    x[28]     c3        271
    x[28]     c4        838
    x[28]     c5        707
    x[28]     OBJ       -552
    x[29]     c1        891
    x[29]     c2        495
    x[29]     c3        1
    x[29]     c4        448
    x[29]     c5        230
    x[29]     OBJ       -424
    x[30]     c1        412
    x[30]     c2        328
    x[30]     c3        818
    x[30]     c4        56
    x[30]     c5        89
    x[30]     OBJ       -482
    x[31]     c1        766
    x[31]     c2        899
    x[31]     c3        101
    x[31]     c4        21
    x[31]     c5        1000
    x[31]     OBJ       -902
    x[32]     c1        489
    x[32]     c2        128
    x[32]     c3        123
    x[32]     c4        711
    x[32]     c5        325
    x[32]     OBJ       -976
    x[33]     c1        936
    x[33]     c2        977
    x[33]     c3        87
    x[33]     c4        172
    x[33]     c5        408
    x[33]     OBJ       -313
    x[34]     c1        71
    x[34]     c2        593
    x[34]     c3        414
    x[34]     c4        488
    x[34]     c5        31
    x[34]     OBJ       -126
    x[35]     c1        290
    x[35]     c2        661
    x[35]     c3        7
    x[35]     c4        551
    x[35]     c5        140
    x[35]     OBJ       -894
    x[36]     c1        229
    x[36]     c2        237
    x[36]     c3        766
    x[36]     c4        240
    x[36]     c5        374
    x[36]     OBJ       -926
    x[37]     c1        252
    x[37]     c2        74
    x[37]     c3        363
    x[37]     c4        642
    x[37]     c5        165
    x[37]     OBJ       -741
    x[38]     c1        974
    x[38]     c2        179
    x[38]     c3        850
    x[38]     c4        660
    x[38]     c5        311
    x[38]     OBJ       -799
    x[39]     c1        790
    x[39]     c2        902
    x[39]     c3        932
    x[39]     c4        204
    x[39]     c5        813
    x[39]     OBJ       -609
    x[40]     c1        2
    x[40]     c2        681
    x[40]     c3        4
    x[40]     c4        680
    x[40]     c5        809
    x[40]     OBJ       -211
    x[41]     c1        821
    x[41]     c2        66
    x[41]     c3        696
    x[41]     c4        89
    x[41]     c5        638
    x[41]     OBJ       -125
    x[42]     c1        681
    x[42]     c2        445
    x[42]     c3        217
    x[42]     c4        138
    x[42]     c5        254
    x[42]     OBJ       -187
    x[43]     c1        829
    x[43]     c2        635
    x[43]     c3        411
    x[43]     c4        93
    x[43]     c5        197
    x[43]     OBJ       -210
    x[44]     c1        421
    x[44]     c2        253
    x[44]     c3        793
    x[44]     c4        675
    x[44]     c5        301
    x[44]     OBJ       -961
    x[45]     c1        78
    x[45]     c2        303
    x[45]     c3        23
    x[45]     c4        437
    x[45]     c5        466
    x[45]     OBJ       -19
    x[46]     c1        617
    x[46]     c2        631
    x[46]     c3        111
    x[46]     c4        527
    x[46]     c5        862
    x[46]     OBJ       -724
    x[47]     c1        410
    x[47]     c2        188
    x[47]     c3        239
    x[47]     c4        448
    x[47]     c5        397
    x[47]     OBJ       -326
    x[48]     c1        924
    x[48]     c2        889
    x[48]     c3        892
    x[48]     c4        638
    x[48]     c5        538
    x[48]     OBJ       -732
    x[49]     c1        176
    x[49]     c2        705
    x[49]     c3        175
    x[49]     c4        116
    x[49]     c5        270
    x[49]     OBJ       -670
    x[50]     c1        369
    x[50]     c2        15
    x[50]     c3        708
    x[50]     c4        631
    x[50]     c5        947
    x[50]     OBJ       -77
RHS
    rhs       c1        12396
    rhs       c2        11500
    rhs       c3        11057
    rhs       c4        11526
    rhs       c5        12038
RANGES
BOUNDS
 BV bounds    x[1]
 BV bounds    x[2]
 BV bounds    x[3]
 BV bounds    x[4]
 BV bounds    x[5]
 BV bounds    x[6]
 BV bounds    x[7]
 BV bounds    x[8]
 BV bounds    x[9]
 BV bounds    x[10]
 BV bounds    x[11]
 BV bounds    x[12]
 BV bounds    x[13]
 BV bounds    x[14]
 BV bounds    x[15]
 BV bounds    x[16]
 BV bounds    x[17]
 BV bounds    x[18]
 BV bounds    x[19]
 BV bounds    x[20]
 BV bounds    x[21]
 BV bounds    x[22]
 BV bounds    x[23]
 BV bounds    x[24]
 BV bounds    x[25]
 BV bounds    x[26]
 BV bounds    x[27]
 BV bounds    x[28]
 BV bounds    x[29]
 BV bounds    x[30]
 BV bounds    x[31]
 BV bounds    x[32]
 BV bounds    x[33]
 BV bounds    x[34]
 BV bounds    x[35]
 BV bounds    x[36]
 BV bounds    x[37]
 BV bounds    x[38]
 BV bounds    x[39]
 BV bounds    x[40]
 BV bounds    x[41]
 BV bounds    x[42]
 BV bounds    x[43]
 BV bounds    x[44]
 BV bounds    x[45]
 BV bounds    x[46]
 BV bounds    x[47]
 BV bounds    x[48]
 BV bounds    x[49]
 BV bounds    x[50]
ENDATA
